0 0 0 0
0 1 1 0
0 2 0 0
0 3 0 0
0 4 2 2
0 5 0 12
0 6 0 4
0 7 0 13
0 8 1 20
0 9 0 4
0 10 1 7
0 11 0 5
0 12 0 13
0 13 1 9
0 14 1 20
0 15 0 10
0 16 0 12
0 17 0 14
0 18 0 18
0 19 0 12
0 20 2 20
0 21 0 13
0 22 0 16
0 23 2 16
0 24 0 14
0 25 2 20
0 26 0 26
0 27 2 15
0 28 0 32
0 29 1 23
0 30 0 29
0 31 0 34
